&control
  calculation = 'bands'
  restart_mode = 'from_scratch'
  prefix = 'pwscf'
  tstress = .true.
  tprnfor = .true.
  pseudo_dir = './../../pseudo/psl031_PBE'
  outdir = './work'
  wf_collect = .true.
  disk_io = 'low'
  verbosity = 'high'
/
&system
  nbnd = 114
  ibrav = 0
  A =    5.39682
  nat = 12
  ntyp = 2
  ecutwfc = 64.0
  ecutrho = 782.0
  occupations = 'smearing'
  smearing = 'm-p'
  degauss = 0.010
/
&electrons
/
CELL_PARAMETERS {alat}
  1.000000000000000   0.000000000000000   0.000000000000000 
  0.000000000000000   1.000000000000000   0.000000000000000 
  0.000000000000000   0.000000000000000   1.000000000000000 

ATOMIC_SPECIES
   S   32.06750  S.pbe-n-kjpaw_psl.0.1.UPF
  Fe   55.84500  Fe.pbe-spn-kjpaw_psl.0.2.1.UPF 

ATOMIC_POSITIONS {crystal}
  Fe   0.000000000000000   0.500000000000000   0.500000000000000 
  Fe   0.500000000000000   0.500000000000000   0.000000000000000 
  Fe   0.500000000000000   0.000000000000000   0.500000000000000 
  Fe   0.000000000000000   0.000000000000000   0.000000000000000 
   S   0.385380140000000   0.114619860000000   0.885380140000000 
   S   0.114619860000000   0.885380140000000   0.385380140000000 
   S   0.885380140000000   0.385380140000000   0.114619860000000 
   S   0.614619860000000   0.614619860000000   0.614619860000000 
   S   0.385380140000000   0.385380140000000   0.385380140000000 
   S   0.114619860000000   0.614619860000000   0.885380140000000 
   S   0.885380140000000   0.114619860000000   0.614619860000000 
   S   0.614619860000000   0.885380140000000   0.114619860000000 

K_POINTS {crystal_b}
5
   0.5000000000    0.5000000000    0.5000000000    20    !  R
   0.0000000000    0.0000000000    0.0000000000    20    !  G
   0.5000000000    0.0000000000    0.0000000000    20    !  X
   0.5000000000    0.5000000000    0.0000000000    20    !  M
   0.0000000000    0.0000000000    0.0000000000    20    !  G

