&control
  calculation = 'bands'
  restart_mode = 'from_scratch'
  prefix = 'pwscf'
  tstress = .true.
  tprnfor = .true.
  pseudo_dir = './../../pseudo/psl100_PBE'
  outdir = './work'
  wf_collect = .true.
  disk_io = 'low'
  verbosity = 'high'
/
&system
  nbnd = 26
  ibrav = 0
  A =    3.86901
  nat = 5
  ntyp = 3
  ecutwfc = 57.0
  ecutrho = 702.0
  occupations = 'smearing'
  smearing = 'm-p'
  degauss = 0.010
/
&electrons
  mixing_mode = 'plain'
  mixing_beta = 0.7
  conv_thr =  3.7e-04 ,


/
CELL_PARAMETERS {alat}
  1.000000000000000   0.000000000000000   0.000000000000000 
  0.000000000000000   1.000000000000000   0.000000000000000 
  0.000000000000000   0.000000000000000   1.000000000000000 

ATOMIC_SPECIES
  Mn   54.93800  Mn.pbe-spn-kjpaw_psl.1.0.0.UPF
   O   15.99900  O.pbe-n-kjpaw_psl.1.0.0.UPF
  Sr   87.62000  Sr.pbe-spn-kjpaw_psl.1.0.0.UPF 

ATOMIC_POSITIONS {crystal}
  Sr   0.500000000000000   0.500000000000000   0.500000000000000 
  Mn   0.000000000000000   0.000000000000000   0.000000000000000 
   O   0.500000000000000   0.000000000000000   0.000000000000000 
   O   0.000000000000000   0.000000000000000   0.500000000000000 
   O   0.000000000000000   0.500000000000000   0.000000000000000 

K_POINTS {crystal_b}
5
   0.5000000000    0.5000000000    0.5000000000    20    !  R
   0.0000000000    0.0000000000    0.0000000000    20    !  G
   0.0000000000    0.5000000000    0.0000000000    20    !  X
   0.5000000000    0.5000000000    0.0000000000    20    !  M
   0.0000000000    0.0000000000    0.0000000000    20    !  G

