&CONTROL
  calculation  = 'scf' ,
  prefix  = 'cif_scf' ,
  outdir  = './work/' ,
  pseudo_dir = './../../pseudo/psl100_PBE' ,
/
&SYSTEM
  ibrav = 0
  A =    4.43022
  nat = 12
  ntyp = 3
  ecutwfc  = 40 ,
  ecutrho  = 160 ,
  occupations = 'smearing' ,
  degauss  = 0.02 ,
  smearing = 'mp',
  nspin = 2 ,
  starting_magnetization(1) = 1 ,
  starting_magnetization(2) = 1 ,
  starting_magnetization(3) = 1 ,
  tot_magnetization = -1 ,
  exxdiv_treatment = 'gygi-baldereschi' ,
  x_gamma_extrapolation = .true. ,
/
&ELECTRONS
  conv_thr = 8.8e-04 ,
  mixing_beta = 0.7 ,
/
CELL_PARAMETERS {alat}
  1.000000000000000   0.000000000000000   0.000000000000000 
  0.000000000000000   1.688397782323324   0.000000000000000 
  0.000000000000000   0.000000000000000   1.860555972138642 
ATOMIC_SPECIES
  Mg   24.30500  mg_PSEUDO
  Si   28.08500  si_PSEUDO
  Ca   40.07800  ca_PSEUDO 
ATOMIC_POSITIONS {crystal}
  Ca   0.250000000000000   0.017789000000000   0.182688000000000 
  Ca   0.750000000000000   0.982211000000000   0.817312000000000 
  Ca   0.250000000000000   0.517789000000000   0.317312000000000 
  Ca   0.750000000000000   0.482211000000000   0.682688000000000 
  Si   0.250000000000000   0.271378000000000   0.887264000000000 
  Si   0.750000000000000   0.228622000000000   0.387264000000000 
  Si   0.250000000000000   0.771378000000000   0.612736000000000 
  Si   0.750000000000000   0.728622000000000   0.112736000000000 
  Mg   0.750000000000000   0.853958000000000   0.435051000000000 
  Mg   0.250000000000000   0.646042000000000   0.935051000000000 
  Mg   0.750000000000000   0.353958000000000   0.064949000000000 
  Mg   0.250000000000000   0.146042000000000   0.564949000000000 
K_POINTS automatic
  4 2 2  1 1 1

