&control
  calculation = 'bands'
  restart_mode = 'from_scratch'
  prefix = 'pwscf'
  tstress = .true.
  tprnfor = .true.
  pseudo_dir = './../../pseudo/psl100_PBE'
  outdir = './work'
  wf_collect = .true.
  disk_io = 'low'
  verbosity = 'high'
/
&system
  nbnd = 124
  ibrav = 0
  A =    5.70766
  nat = 16
  ntyp = 3
  ecutwfc = 71.0
  ecutrho = 641.0
  occupations = 'smearing'
  smearing = 'm-p'
  degauss = 0.010
/
&electrons
  mixing_mode = 'plain'
  mixing_beta = 0.7
  conv_thr =  1.2e-03 ,


/
CELL_PARAMETERS {alat}
  1.000000000000000   0.000000000000000   0.000000000000000 
  0.000000000000000   1.000000000000000   0.000000000000000 
  0.000000000000000   0.000000000000000   1.000000000000000 

ATOMIC_SPECIES
  Al   26.98100  Al.pbe-n-kjpaw_psl.1.0.0.UPF
   V   50.94150  V.pbe-spn-kjpaw_psl.1.0.0.UPF
  Fe   55.84500  Fe.pbe-spn-kjpaw_psl.1.0.0.UPF 

ATOMIC_POSITIONS {crystal}
  Fe   0.250000000000000   0.750000000000000   0.750000000000000 
  Fe   0.750000000000000   0.250000000000000   0.250000000000000 
  Fe   0.750000000000000   0.250000000000000   0.750000000000000 
  Fe   0.250000000000000   0.750000000000000   0.250000000000000 
  Fe   0.750000000000000   0.750000000000000   0.250000000000000 
  Fe   0.250000000000000   0.250000000000000   0.750000000000000 
  Fe   0.250000000000000   0.250000000000000   0.250000000000000 
  Fe   0.750000000000000   0.750000000000000   0.750000000000000 
   V   0.500000000000000   0.000000000000000   0.000000000000000 
   V   0.000000000000000   0.500000000000000   0.000000000000000 
   V   0.000000000000000   0.000000000000000   0.500000000000000 
   V   0.500000000000000   0.500000000000000   0.500000000000000 
  Al   0.000000000000000   0.000000000000000   0.000000000000000 
  Al   0.000000000000000   0.500000000000000   0.500000000000000 
  Al   0.500000000000000   0.000000000000000   0.500000000000000 
  Al   0.500000000000000   0.500000000000000   0.000000000000000 

K_POINTS {crystal_b}
6
   0.5000000000    0.2500000000    0.7500000000    20    !  W
   0.0000000000    0.5000000000    0.0000000000    20    !  L
   0.0000000000    0.0000000000    0.0000000000    20    !  G
   0.0000000000    0.5000000000    0.5000000000    20    !  X
   0.7500000000    0.5000000000    0.2500000000    20    !  W
   0.7500000000    0.3750000000    0.3750000000    20    !  K

