&control
  calculation = 'bands'
  restart_mode = 'from_scratch'
  prefix = 'pwscf'
  tstress = .true.
  tprnfor = .true.
  pseudo_dir = './../../pseudo/psl100_PBE'
  outdir = './work'
  wf_collect = .true.
  disk_io = 'low'
  verbosity = 'high'
/
&system
  nbnd = 13
  ibrav = 0
  A =    2.84005
  nat = 1
  ntyp = 1
  ecutwfc = 71.0
  ecutrho = 496.0
  occupations = 'smearing'
  smearing = 'm-p'
  degauss = 0.010
/
&electrons
  mixing_mode = 'plain'
  mixing_beta = 0.7
  conv_thr =  7.3e-05 ,


/
CELL_PARAMETERS {alat}
 -0.500000000000000   0.500000000000000   0.500000000000000 
  0.500000000000000  -0.500000000000000   0.500000000000000 
  0.500000000000000   0.500000000000000  -0.500000000000000 

ATOMIC_SPECIES
  Fe   55.84500  Fe.pbe-spn-kjpaw_psl.1.0.0.UPF 

ATOMIC_POSITIONS {crystal}
  Fe   0.000000000000000   0.000000000000000   0.000000000000000 

K_POINTS {crystal_b}
5
   0.0000000000    0.0000000000    0.0000000000    20    !  G
   0.5000000000   -0.5000000000    0.5000000000    20    !  H
   0.0000000000    0.0000000000    0.5000000000    20    !  N
   0.0000000000    0.0000000000    0.0000000000    20    !  G
   0.2500000000    0.2500000000    0.2500000000    20    !  P

