&CONTROL
  calculation  = 'scf' ,
  prefix  = 'cif_scf' ,
  outdir  = './work/' ,
  pseudo_dir = './../../pseudo_psl031' ,
/
&SYSTEM
  ibrav = 0
  A =    5.39682
  nat = 12
  ntyp = 2
  ecutwfc  = 40 ,
  ecutrho  = 160 ,
  occupations = 'smearing' ,
  degauss  = 0.02 ,
  smearing = 'mp',
  nspin = 2 ,
  starting_magnetization(1) = 1 ,
  starting_magnetization(2) = 1 ,
  tot_magnetization = -1 ,
  exxdiv_treatment = 'gygi-baldereschi' ,
  x_gamma_extrapolation = .true. ,
/
&ELECTRONS
  conv_thr = 8.8e-04 ,
  mixing_beta = 0.7 ,
/
CELL_PARAMETERS {alat}
  1.000000000000000   0.000000000000000   0.000000000000000 
  0.000000000000000   1.000000000000000   0.000000000000000 
  0.000000000000000   0.000000000000000   1.000000000000000 
ATOMIC_SPECIES
   S   32.06750   S.UPF
  Fe   55.84500  Fe.UPF 
ATOMIC_POSITIONS {crystal}
  Fe   0.000000000000000   0.500000000000000   0.500000000000000 
  Fe   0.500000000000000   0.500000000000000   0.000000000000000 
  Fe   0.500000000000000   0.000000000000000   0.500000000000000 
  Fe   0.000000000000000   0.000000000000000   0.000000000000000 
   S   0.385380140000000   0.114619860000000   0.885380140000000 
   S   0.114619860000000   0.885380140000000   0.385380140000000 
   S   0.885380140000000   0.385380140000000   0.114619860000000 
   S   0.614619860000000   0.614619860000000   0.614619860000000 
   S   0.385380140000000   0.385380140000000   0.385380140000000 
   S   0.114619860000000   0.614619860000000   0.885380140000000 
   S   0.885380140000000   0.114619860000000   0.614619860000000 
   S   0.614619860000000   0.885380140000000   0.114619860000000 
K_POINTS automatic
  3 3 3  0 0 0

