&CONTROL
  calculation  = 'scf' ,
  prefix  = 'cif_scf' ,
  outdir  = './work/' ,
  pseudo_dir = './../../pseudo/psl031_PBE' ,
/
&SYSTEM
  ibrav = 0
  A =    5.39682
  nat = 12
  ntyp = 2
  ecutwfc  =  64.0 ,
  ecutrho  = 782.0 ,
  occupations = 'smearing' ,
  degauss  = 0.02 ,
  smearing = 'mp',
  nspin = 2 ,
  starting_magnetization(1) = 1 ,
  starting_magnetization(2) = 1 ,
  tot_magnetization = -1 ,
  exxdiv_treatment = 'gygi-baldereschi' ,
  x_gamma_extrapolation = .true. ,
/
&ELECTRONS
  conv_thr = 8.8e-04 ,
  mixing_beta = 0.7 ,
/
CELL_PARAMETERS {alat}
  1.000000000000000   0.000000000000000   0.000000000000000 
  0.000000000000000   1.000000000000000   0.000000000000000 
  0.000000000000000   0.000000000000000   1.000000000000000 
ATOMIC_SPECIES
  Fe   55.84500  Fe.pbe-spn-kjpaw_psl.0.2.1.UPF
   S   32.06750  S.pbe-n-kjpaw_psl.0.1.UPF 
ATOMIC_POSITIONS {crystal}
  Fe   0.000000000000000   0.500000000000000   0.500000000000000 
  Fe   0.500000000000000   0.500000000000000   0.000000000000000 
  Fe   0.500000000000000   0.000000000000000   0.500000000000000 
  Fe   0.000000000000000   0.000000000000000   0.000000000000000 
   S   0.385380140000000   0.114619860000000   0.885380140000000 
   S   0.114619860000000   0.885380140000000   0.385380140000000 
   S   0.885380140000000   0.385380140000000   0.114619860000000 
   S   0.614619860000000   0.614619860000000   0.614619860000000 
   S   0.385380140000000   0.385380140000000   0.385380140000000 
   S   0.114619860000000   0.614619860000000   0.885380140000000 
   S   0.885380140000000   0.114619860000000   0.614619860000000 
   S   0.614619860000000   0.885380140000000   0.114619860000000 
K_POINTS automatic
  3 3 3  0 0 0

