! generated by cif2qewan.py
num_bands = 180
num_wann  = 60
exclude_bands = 1-24

dis_num_iter = 200
num_iter = 0

dis_froz_max = -200
dis_froz_min = -200

begin projections
Fe:s,p,d
S:p
end projections

bands_plot = .true.
write_hr = .true.
write_tb = .true.
fermi_surface_plot = .true.
wannier_plot = .true.

begin unit_cell_cart
ang
   5.3968200    0.0000000    0.0000000
   0.0000000    5.3968200    0.0000000
   0.0000000    0.0000000    5.3968200
end unit_cell_cart

begin atoms_frac
  Fe   0.000000000000000   0.500000000000000   0.500000000000000 
  Fe   0.500000000000000   0.500000000000000   0.000000000000000 
  Fe   0.500000000000000   0.000000000000000   0.500000000000000 
  Fe   0.000000000000000   0.000000000000000   0.000000000000000 
   S   0.385380140000000   0.114619860000000   0.885380140000000 
   S   0.114619860000000   0.885380140000000   0.385380140000000 
   S   0.885380140000000   0.385380140000000   0.114619860000000 
   S   0.614619860000000   0.614619860000000   0.614619860000000 
   S   0.385380140000000   0.385380140000000   0.385380140000000 
   S   0.114619860000000   0.614619860000000   0.885380140000000 
   S   0.885380140000000   0.114619860000000   0.614619860000000 
   S   0.614619860000000   0.885380140000000   0.114619860000000 
end atoms_frac

mp_grid: 4 4 4

begin kpoints
   0.0000000000    0.0000000000    0.0000000000    0.0156250000
   0.0000000000    0.0000000000    0.2500000000    0.0156250000
   0.0000000000    0.0000000000    0.5000000000    0.0156250000
   0.0000000000    0.0000000000    0.7500000000    0.0156250000
   0.0000000000    0.2500000000    0.0000000000    0.0156250000
   0.0000000000    0.2500000000    0.2500000000    0.0156250000
   0.0000000000    0.2500000000    0.5000000000    0.0156250000
   0.0000000000    0.2500000000    0.7500000000    0.0156250000
   0.0000000000    0.5000000000    0.0000000000    0.0156250000
   0.0000000000    0.5000000000    0.2500000000    0.0156250000
   0.0000000000    0.5000000000    0.5000000000    0.0156250000
   0.0000000000    0.5000000000    0.7500000000    0.0156250000
   0.0000000000    0.7500000000    0.0000000000    0.0156250000
   0.0000000000    0.7500000000    0.2500000000    0.0156250000
   0.0000000000    0.7500000000    0.5000000000    0.0156250000
   0.0000000000    0.7500000000    0.7500000000    0.0156250000
   0.2500000000    0.0000000000    0.0000000000    0.0156250000
   0.2500000000    0.0000000000    0.2500000000    0.0156250000
   0.2500000000    0.0000000000    0.5000000000    0.0156250000
   0.2500000000    0.0000000000    0.7500000000    0.0156250000
   0.2500000000    0.2500000000    0.0000000000    0.0156250000
   0.2500000000    0.2500000000    0.2500000000    0.0156250000
   0.2500000000    0.2500000000    0.5000000000    0.0156250000
   0.2500000000    0.2500000000    0.7500000000    0.0156250000
   0.2500000000    0.5000000000    0.0000000000    0.0156250000
   0.2500000000    0.5000000000    0.2500000000    0.0156250000
   0.2500000000    0.5000000000    0.5000000000    0.0156250000
   0.2500000000    0.5000000000    0.7500000000    0.0156250000
   0.2500000000    0.7500000000    0.0000000000    0.0156250000
   0.2500000000    0.7500000000    0.2500000000    0.0156250000
   0.2500000000    0.7500000000    0.5000000000    0.0156250000
   0.2500000000    0.7500000000    0.7500000000    0.0156250000
   0.5000000000    0.0000000000    0.0000000000    0.0156250000
   0.5000000000    0.0000000000    0.2500000000    0.0156250000
   0.5000000000    0.0000000000    0.5000000000    0.0156250000
   0.5000000000    0.0000000000    0.7500000000    0.0156250000
   0.5000000000    0.2500000000    0.0000000000    0.0156250000
   0.5000000000    0.2500000000    0.2500000000    0.0156250000
   0.5000000000    0.2500000000    0.5000000000    0.0156250000
   0.5000000000    0.2500000000    0.7500000000    0.0156250000
   0.5000000000    0.5000000000    0.0000000000    0.0156250000
   0.5000000000    0.5000000000    0.2500000000    0.0156250000
   0.5000000000    0.5000000000    0.5000000000    0.0156250000
   0.5000000000    0.5000000000    0.7500000000    0.0156250000
   0.5000000000    0.7500000000    0.0000000000    0.0156250000
   0.5000000000    0.7500000000    0.2500000000    0.0156250000
   0.5000000000    0.7500000000    0.5000000000    0.0156250000
   0.5000000000    0.7500000000    0.7500000000    0.0156250000
   0.7500000000    0.0000000000    0.0000000000    0.0156250000
   0.7500000000    0.0000000000    0.2500000000    0.0156250000
   0.7500000000    0.0000000000    0.5000000000    0.0156250000
   0.7500000000    0.0000000000    0.7500000000    0.0156250000
   0.7500000000    0.2500000000    0.0000000000    0.0156250000
   0.7500000000    0.2500000000    0.2500000000    0.0156250000
   0.7500000000    0.2500000000    0.5000000000    0.0156250000
   0.7500000000    0.2500000000    0.7500000000    0.0156250000
   0.7500000000    0.5000000000    0.0000000000    0.0156250000
   0.7500000000    0.5000000000    0.2500000000    0.0156250000
   0.7500000000    0.5000000000    0.5000000000    0.0156250000
   0.7500000000    0.5000000000    0.7500000000    0.0156250000
   0.7500000000    0.7500000000    0.0000000000    0.0156250000
   0.7500000000    0.7500000000    0.2500000000    0.0156250000
   0.7500000000    0.7500000000    0.5000000000    0.0156250000
   0.7500000000    0.7500000000    0.7500000000    0.0156250000
end kpoints

Begin Kpoint_Path
R   0.5000000000   0.5000000000   0.5000000000  G   0.0000000000   0.0000000000   0.0000000000
G   0.0000000000   0.0000000000   0.0000000000  X   0.5000000000   0.0000000000   0.0000000000
X   0.5000000000   0.0000000000   0.0000000000  M   0.5000000000   0.5000000000   0.0000000000
M   0.5000000000   0.5000000000   0.0000000000  G   0.0000000000   0.0000000000   0.0000000000
End Kpoint_Path
