&control
  calculation = 'bands'
  restart_mode = 'from_scratch'
  prefix = 'pwscf'
  tstress = .true.
  tprnfor = .true.
  pseudo_dir = './../../pseudo/psl031_PBE'
  outdir = './work'
  wf_collect = .true.
  disk_io = 'low'
  verbosity = 'high'
/
&system
  nbnd = 48
  ibrav = 0
  A =    6.36517
  nat = 12
  ntyp = 2
  ecutwfc = 38.0
  ecutrho = 151.0
  occupations = 'smearing'
  smearing = 'm-p'
  degauss = 0.010
/
&electrons
  mixing_mode = 'plain'
  mixing_beta = 0.7
  conv_thr =  8.8e-04 ,


/
CELL_PARAMETERS {alat}
  1.000000000000000   0.000000000000000   0.000000000000000 
  0.000000000000000   1.000000000000000   0.000000000000000 
  0.000000000000000   0.000000000000000   1.000000000000000 

ATOMIC_SPECIES
  Mg   24.30500  Mg.pbe-n-rrkjus_psl.0.3.0.UPF
  Si   28.08500  Si.pbe-n-rrkjus_psl.0.1.UPF 

ATOMIC_POSITIONS {crystal}
  Si   0.000000000000000   0.000000000000000   0.000000000000000 
  Si   0.000000000000000   0.500000000000000   0.500000000000000 
  Si   0.500000000000000   0.000000000000000   0.500000000000000 
  Si   0.500000000000000   0.500000000000000   0.000000000000000 
  Mg   0.250000000000000   0.750000000000000   0.750000000000000 
  Mg   0.750000000000000   0.250000000000000   0.250000000000000 
  Mg   0.750000000000000   0.250000000000000   0.750000000000000 
  Mg   0.250000000000000   0.750000000000000   0.250000000000000 
  Mg   0.750000000000000   0.750000000000000   0.250000000000000 
  Mg   0.250000000000000   0.250000000000000   0.750000000000000 
  Mg   0.250000000000000   0.250000000000000   0.250000000000000 
  Mg   0.750000000000000   0.750000000000000   0.750000000000000 

K_POINTS {crystal_b}
6
   0.5000000000    0.2500000000    0.7500000000    20    !  W
   0.0000000000    0.5000000000    0.0000000000    20    !  L
   0.0000000000    0.0000000000    0.0000000000    20    !  G
   0.0000000000    0.5000000000    0.5000000000    20    !  X
   0.7500000000    0.5000000000    0.2500000000    20    !  W
   0.7500000000    0.3750000000    0.3750000000    20    !  K

