&control
  calculation = 'bands'
  restart_mode = 'from_scratch'
  prefix = 'pwscf'
  tstress = .true.
  tprnfor = .true.
  pseudo_dir = './../../pseudo/psl100_PBE'
  outdir = './work'
  wf_collect = .true.
  disk_io = 'low'
  verbosity = 'high'
/
&system
  nbnd = 25
  ibrav = 0
  A =    3.95007
  nat = 5
  ntyp = 3
  ecutwfc = 75.0
  ecutrho = 641.0
  occupations = 'smearing'
  smearing = 'm-p'
  degauss = 0.010
/
&electrons
  mixing_mode = 'plain'
  mixing_beta = 0.7
  conv_thr =  3.7e-04 ,


/
CELL_PARAMETERS {alat}
  1.000000000000000   0.000000000000000   0.000000000000000 
  0.000000000000000   1.000000000000000   0.000000000000000 
  0.000000000000000   0.000000000000000   1.000000000000000 

ATOMIC_SPECIES
   O   15.99900  O.pbe-n-kjpaw_psl.1.0.0.UPF
  La  138.90500  La.pbe-spfn-kjpaw_psl.1.0.0.UPF
   V   50.94150  V.pbe-spn-kjpaw_psl.1.0.0.UPF 

ATOMIC_POSITIONS {crystal}
  La   0.500000000000000   0.500000000000000   0.500000000000000 
   V   0.000000000000000   0.000000000000000   0.000000000000000 
   O   0.500000000000000   0.000000000000000   0.000000000000000 
   O   0.000000000000000   0.000000000000000   0.500000000000000 
   O   0.000000000000000   0.500000000000000   0.000000000000000 

K_POINTS {crystal_b}
5
   0.5000000000    0.5000000000    0.5000000000    20    !  R
   0.0000000000    0.0000000000    0.0000000000    20    !  G
   0.0000000000    0.5000000000    0.0000000000    20    !  X
   0.5000000000    0.5000000000    0.0000000000    20    !  M
   0.0000000000    0.0000000000    0.0000000000    20    !  G

