&control
  calculation = 'bands'
  restart_mode = 'from_scratch'
  prefix = 'pwscf'
  tstress = .true.
  tprnfor = .true.
  pseudo_dir = './../../pseudo/psl100_PBE'
  outdir = './work'
  wf_collect = .true.
  disk_io = 'low'
  verbosity = 'high'
/
&system
  nbnd = 100
  ibrav = 0
  A =    5.62406
  nat = 20
  ntyp = 3
  ecutwfc = 75.0
  ecutrho = 641.0
  occupations = 'smearing'
  smearing = 'm-p'
  degauss = 0.010
/
&electrons
  mixing_mode = 'plain'
  mixing_beta = 0.7
  conv_thr =  1.5e-03 ,


/
CELL_PARAMETERS {alat}
  1.000000000000000   0.000000000000000   0.000000000000000 
  0.000000000000000   0.990644801049912   0.000000000000000 
 -0.003827156821322   0.000000000000000   1.370305719050366 

ATOMIC_SPECIES
   V   50.94150  V.pbe-spn-kjpaw_psl.1.0.0.UPF
   O   15.99900  O.pbe-n-kjpaw_psl.1.0.0.UPF
  La  138.90500  La.pbe-spfn-kjpaw_psl.1.0.0.UPF 

ATOMIC_POSITIONS {crystal}
  La   0.964383760000000   0.008475360000000   0.750213800000000 
  La   0.535616240000000   0.508475360000000   0.249786200000000 
  La   0.464383760000000   0.491524640000000   0.750213800000000 
  La   0.035616240000000   0.991524640000000   0.249786200000000 
   V   0.500000000000000   0.000000000000000   0.000000000000000 
   V   0.500000000000000   0.000000000000000   0.500000000000000 
   V   0.000000000000000   0.500000000000000   0.000000000000000 
   V   0.000000000000000   0.500000000000000   0.500000000000000 
   O   0.488776480000000   0.068648870000000   0.250000000000000 
   O   0.011223520000000   0.568648870000000   0.750041970000000 
   O   0.988776480000000   0.431351130000000   0.250000000000000 
   O   0.511223520000000   0.931351130000000   0.750041970000000 
   O   0.208378120000000   0.216138500000000   0.538031620000000 
   O   0.291621880000000   0.716138500000000   0.461968380000000 
   O   0.716949160000000   0.291267620000000   0.961945440000000 
   O   0.783050840000000   0.791267620000000   0.038054560000000 
   O   0.791621880000000   0.783861500000000   0.461968380000000 
   O   0.708378120000000   0.283861500000000   0.538031620000000 
   O   0.283050840000000   0.708732380000000   0.038054560000000 
   O   0.216949160000000   0.208732380000000   0.961945440000000 

K_POINTS {crystal_b}
5
   0.5000000000    0.5000000000    0.5000000000    20    !  R
   0.0000000000    0.0000000000    0.0000000000    20    !  G
   0.0000000000    0.5000000000    0.0000000000    20    !  X
   0.5000000000    0.5000000000    0.0000000000    20    !  M
   0.0000000000    0.0000000000    0.0000000000    20    !  G

