&control
  calculation = 'bands'
  restart_mode = 'from_scratch'
  prefix = 'pwscf'
  tstress = .true.
  tprnfor = .true.
  pseudo_dir = './../../pseudo/psl100_PBEsol'
  outdir = './work'
  wf_collect = .true.
  disk_io = 'low'
  verbosity = 'high'
/
&system
  nbnd = 92
  ibrav = 0
  A =    6.16264
  nat = 12
  ntyp = 3
  ecutwfc = 47.0
  ecutrho = 267.0
  occupations = 'smearing'
  smearing = 'm-p'
  degauss = 0.010
/
&electrons
  mixing_mode = 'plain'
  mixing_beta = 0.7
  conv_thr =  8.8e-04 ,


/
CELL_PARAMETERS {alat}
  1.000000000000000   0.000000000000000   0.000000000000000 
  0.000000000000000   1.000000000000000   0.000000000000000 
  0.000000000000000   0.000000000000000   1.000000000000000 

ATOMIC_SPECIES
  Ni   58.69340  Ni.pbesol-n-kjpaw_psl.1.0.0.UPF
  Sn  118.71000  Sn.pbesol-dn-kjpaw_psl.1.0.0.UPF
  Zr   91.22400  Zr.pbesol-spn-kjpaw_psl.1.0.0.UPF 

ATOMIC_POSITIONS {crystal}
  Sn   0.500000000000000   0.000000000000000   0.000000000000000 
  Sn   0.000000000000000   0.500000000000000   0.000000000000000 
  Sn   0.000000000000000   0.000000000000000   0.500000000000000 
  Sn   0.500000000000000   0.500000000000000   0.500000000000000 
  Zr   0.000000000000000   0.000000000000000   0.000000000000000 
  Zr   0.000000000000000   0.500000000000000   0.500000000000000 
  Zr   0.500000000000000   0.000000000000000   0.500000000000000 
  Zr   0.500000000000000   0.500000000000000   0.000000000000000 
  Ni   0.250000000000000   0.250000000000000   0.750000000000000 
  Ni   0.750000000000000   0.750000000000000   0.750000000000000 
  Ni   0.750000000000000   0.250000000000000   0.250000000000000 
  Ni   0.250000000000000   0.750000000000000   0.250000000000000 

K_POINTS {crystal_b}
6
   0.5000000000    0.2500000000    0.7500000000    20    !  W
   0.0000000000    0.5000000000    0.0000000000    20    !  L
   0.0000000000    0.0000000000    0.0000000000    20    !  G
   0.0000000000    0.5000000000    0.5000000000    20    !  X
   0.7500000000    0.5000000000    0.2500000000    20    !  W
   0.7500000000    0.3750000000    0.3750000000    20    !  K

